NAME:  test1
TYPE: AGTSP
COMMENT: gtsp tours
DIMENSION: 85 
GTSP_SETS: 13
EDGE_WEIGHT_TYPE: EXPLICIT
EDGE_WEIGHT_FORMAT: FULL_MATRIX 
EDGE_WEIGHT_SECTION
999999	0	999999	999999	999999	999999	999999	23779	23779	23779	23779	23779	23779	23771	23766	23766	23766	23766	23766	23758	999999	23780	23780	23780	23780	23780	23780	23772	23764	23764	23764	23764	23764	23756	999999	23740	23740	23740
999999	999999	0	999999	999999	999999	999999	23779	23779	23779	999999	999999	999999	999999	23766	23766	23766	23766	23766	23766	23758	23780	23780	23780	999999	999999	999999	999999	23764	23764	23764	23764	23764	23764	23756	23740	23740	23740
999999	999999	999999	0	999999	999999	999999	23779	23779	23779	23779	999999	999999	999999	23766	23766	23766	23766	999999	999999	999999	23780	23780	23780	23780	999999	999999	999999	23764	23764	23764	23764	999999	999999	999999	23740	23740	23740
999999	999999	999999	999999	0	999999	999999	23779	23779	23779	23779	23779	999999	999999	23766	23766	23766	23766	23766	999999	999999	23780	23780	23780	23780	23780	999999	999999	23764	23764	23764	23764	23764	999999	999999	23740	23740	23740
999999	999999	999999	999999	999999	0	999999	23779	23779	23779	23779	23779	23779	999999	23766	23766	23766	23766	23766	23766	999999	23780	23780	23780	23780	23780	23780	999999	23764	23764	23764	23764	23764	23764	999999	23740	23740	23740
999999	999999	999999	999999	999999	999999	0	23779	23779	23779	23779	23779	23779	23779	23766	23766	23766	23766	23766	23766	23766	23780	23780	23780	23780	23780	23780	23780	23764	23764	23764	23764	23764	23764	23764	23740	23740	23740
0	999999	999999	999999	999999	999999	999999	23779	23779	23779	23779	23779	23771	999999	23766	23766	23766	23766	23758	999999	999999	23780	23780	23780	23780	23780	23772	999999	23764	23764	23764	23764	23756	999999	999999	23740	23740	23732
23779	23779	23779	23779	23779	23779	23771	999999	0	999999	999999	999999	999999	999999	23746	23746	23746	23738	999999	999999	999999	23736	23736	23728	999999	999999	999999	999999	23759	23759	23759	23759	23751	999999	999999	23768	23768	23768
23779	23779	23779	999999	999999	999999	999999	999999	999999	0	999999	999999	999999	999999	23746	23746	23746	23746	23738	999999	999999	23736	23736	23736	23728	999999	999999	999999	23759	23759	23759	23759	23759	23751	999999	23768	23768	23768
23779	23779	23779	23779	999999	999999	999999	999999	999999	999999	0	999999	999999	999999	23746	23746	23746	23746	23746	23738	999999	23736	23736	23736	23736	23728	999999	999999	23759	23759	23759	23759	23759	23759	23751	23768	23768	23768
23779	23779	23779	23779	23779	999999	999999	999999	999999	999999	999999	0	999999	999999	23746	23746	23746	23746	23746	23746	23738	23736	23736	23736	23736	23736	23728	999999	23759	23759	23759	23759	23759	999999	999999	23768	23768	23768
23779	23779	23779	23779	23779	23779	999999	999999	999999	999999	999999	999999	0	999999	23746	23746	23746	23746	23746	23746	999999	23736	23736	23736	23736	23736	23736	23728	23759	23759	23759	23759	23759	23759	999999	23768	23768	23768
23779	23779	23779	23779	23779	23779	23779	999999	999999	999999	999999	999999	999999	0	23746	23746	23746	23746	23746	23746	23746	23736	23736	23736	23736	23736	23736	23736	23759	23759	23759	23759	23759	23759	23759	23768	23768	23768
23779	23779	23779	23779	23779	23771	999999	0	999999	999999	999999	999999	999999	999999	23746	23746	23738	999999	999999	999999	999999	23736	23728	999999	999999	999999	999999	999999	23759	23759	23759	23751	999999	999999	999999	23768	23768	23768
23766	23766	23766	23766	23766	23758	999999	23746	23746	23746	23738	999999	999999	999999	999999	0	999999	999999	999999	999999	999999	23754	23754	23754	23754	23746	999999	999999	23764	23764	23764	23764	23764	23756	999999	23760	23760	23760
23766	23766	23766	23766	23766	23766	23758	23746	23746	23746	23746	23738	999999	999999	999999	999999	0	999999	999999	999999	999999	23754	23754	23754	23754	23754	23746	999999	23764	23764	23764	23764	23764	23764	23756	23760	23760	23760
23766	23766	23766	23766	999999	999999	999999	23746	23746	23746	23746	23746	23738	999999	999999	999999	999999	0	999999	999999	999999	23754	23754	23754	23754	23754	23754	23746	23764	23764	23764	23764	999999	999999	999999	23760	23760	23760
23766	23766	23766	23766	23766	999999	999999	23746	23746	23746	23746	23746	23746	23738	999999	999999	999999	999999	0	999999	999999	23754	23754	23754	23754	23754	999999	999999	23764	23764	23764	23764	23764	999999	999999	23760	23760	23760
23766	23766	23766	23766	23766	23766	999999	23746	23746	23746	23746	23746	23746	999999	999999	999999	999999	999999	999999	0	999999	23754	23754	23754	23754	23754	23754	999999	23764	23764	23764	23764	23764	23764	999999	23760	23760	23760
23766	23766	23766	23766	23766	23766	23766	23746	23746	23746	23746	23746	23746	23746	999999	999999	999999	999999	999999	999999	0	23754	23754	23754	23754	23754	23754	23754	23764	23764	23764	23764	23764	23764	23764	23760	23760	23760
23766	23766	23766	23766	23758	999999	999999	23746	23746	23738	999999	999999	999999	999999	0	999999	999999	999999	999999	999999	999999	23754	23754	23754	23746	999999	999999	999999	23764	23764	23764	23764	23756	999999	999999	23760	23760	23760
23780	23780	23780	23780	23780	23780	23772	23736	23736	23728	999999	999999	999999	999999	23754	23754	23754	23754	23746	999999	999999	999999	0	999999	999999	999999	999999	999999	23751	23751	23751	23751	23743	999999	999999	23766	23766	23766
23780	23780	23780	999999	999999	999999	999999	23736	23736	23736	23728	999999	999999	999999	23754	23754	23754	23754	23754	23746	999999	999999	999999	0	999999	999999	999999	999999	23751	23751	23751	23751	23751	23743	999999	23766	23766	23766
23780	23780	23780	23780	999999	999999	999999	23736	23736	23736	23736	23728	999999	999999	23754	23754	23754	23754	23754	23754	23746	999999	999999	999999	0	999999	999999	999999	23751	23751	23751	23751	23751	23751	23743	23766	23766	23766
23780	23780	23780	23780	23780	999999	999999	23736	23736	23736	23736	23736	23728	999999	23754	23754	23754	23754	23754	999999	999999	999999	999999	999999	999999	0	999999	999999	23751	23751	23751	23751	23751	999999	999999	23766	23766	23766
23780	23780	23780	23780	23780	23780	999999	23736	23736	23736	23736	23736	23736	23728	23754	23754	23754	23754	23754	23754	999999	999999	999999	999999	999999	999999	0	999999	23751	23751	23751	23751	23751	23751	999999	23766	23766	23766
23780	23780	23780	23780	23780	23780	23780	23736	23736	23736	23736	23736	23736	23736	23754	23754	23754	23754	23754	23754	23754	999999	999999	999999	999999	999999	999999	0	23751	23751	23751	23751	23751	23751	23751	23766	23766	23766
23780	23780	23780	23780	23780	23772	999999	23736	23728	999999	999999	999999	999999	999999	23754	23754	23754	23746	999999	999999	999999	0	999999	999999	999999	999999	999999	999999	23751	23751	23751	23743	999999	999999	999999	23766	23766	23766
23764	23764	23764	23764	23764	23756	999999	23759	23759	23759	23759	23751	999999	999999	23764	23764	23764	23764	23764	23756	999999	23751	23751	23751	23751	23743	999999	999999	999999	0	999999	999999	999999	999999	999999	23749	23749	23749
23764	23764	23764	23764	23764	23764	23756	23759	23759	23759	23759	23759	23751	999999	23764	23764	23764	23764	23764	23764	23756	23751	23751	23751	23751	23751	23743	999999	999999	999999	0	999999	999999	999999	999999	23749	23749	23749
23764	23764	23764	23764	999999	999999	999999	23759	23759	23759	23759	23759	23759	23751	23764	23764	23764	23764	999999	999999	999999	23751	23751	23751	23751	23751	23751	23743	999999	999999	999999	0	999999	999999	999999	23749	23749	23749
23764	23764	23764	23764	23764	999999	999999	23759	23759	23759	23759	23759	999999	999999	23764	23764	23764	23764	23764	999999	999999	23751	23751	23751	23751	23751	999999	999999	999999	999999	999999	999999	0	999999	999999	23749	23749	23749
23764	23764	23764	23764	23764	23764	999999	23759	23759	23759	23759	23759	23759	999999	23764	23764	23764	23764	23764	23764	999999	23751	23751	23751	23751	23751	23751	999999	999999	999999	999999	999999	999999	0	999999	23749	23749	23749
23764	23764	23764	23764	23764	23764	23764	23759	23759	23759	23759	23759	23759	23759	23764	23764	23764	23764	23764	23764	23764	23751	23751	23751	23751	23751	23751	23751	999999	999999	999999	999999	999999	999999	0	23749	23749	23749
23764	23764	23764	23764	23756	999999	999999	23759	23759	23759	23751	999999	999999	999999	23764	23764	23764	23764	23756	999999	999999	23751	23751	23751	23743	999999	999999	999999	0	999999	999999	999999	999999	999999	999999	23749	23749	23741
23740	23740	23740	23732	999999	999999	999999	23768	23768	23768	23768	23768	23760	999999	23760	23760	23760	23760	23752	999999	999999	23766	23766	23766	23766	23766	23758	999999	23749	23749	23749	23741	999999	999999	999999	999999	0	999999
23740	23740	23740	23740	23732	999999	999999	23768	23768	23768	23768	23768	23768	23760	23760	23760	23760	23760	23760	23752	999999	23766	23766	23766	23766	23766	23766	23758	23749	23749	23749	23749	23741	999999	999999	999999	999999	0
23740	23740	23740	23740	23740	23732	999999	23768	23768	23768	23768	999999	999999	999999	23760	23760	23760	23760	23760	23760	23752	23766	23766	23766	23766	999999	999999	999999	23749	23749	23749	23749	23749	23741	999999	999999	999999	999999
GTSP_SET_SECTION:
1 1 2 3 4 5 6 7 -1
2 8 9 10 11 12 13 14 -1
3 15 16 17 18 19 20 21 -1
4 22 23 24 25 26 27 28 -1
5 29 30 31 32 33 34 35 -1
6 36 37 38 39 40 41 42 -1
7 43 44 45 46 47 48 49 -1
8 50 51 52 53 54 55 56 -1
9 57 58 59 60 61 62 63 -1
10 64 65 66 67 68 69 70 -1
11 71 72 73 74 75 76 77 -1
12 78 79 80 81 82 83 84 -1
13 85 -1
EOF